c Sudoku solution
p cnf 729 0
129 0
133 0
144 0
166 0
232 0
247 0
311 0
459 0
472 0
497 0
543 0
562 0
594 0
617 0
622 0
557 0
651 0
261 0
686 0
446 0
693 0
755 0
816 0
956 0
854 0
821 0
879 0
589 0
639 0
664 0
299 0
941 0
968 0
842 0
749 0
919 0
712 0
413 0
214 0
369 0
345 0
648 0
465 0
675 0
977 0
187 0
984 0
992 0
923 0
935 0
374 0
382 0
152 0
353 0
258 0
518 0
525 0
536 0
431 0
424 0
488 0
571 0
115 0
226 0
285 0
273 0
396 0
734 0
178 0
191 0
776 0
781 0
798 0
883 0
895 0
763 0
867 0
727 0
838 0
328 0
337 0
